n_res = 4;
rc = [ 0, 0, 0, 0 ];
n_tasks = 30;
d = [ 8, 4, 2, 5, 9, 7, 7, 7, 6, 8, 10, 5, 3, 4, 10, 10, 10, 5, 4, 1, 6, 1, 9, 4, 9, 3, 4, 10, 5, 9 ];
rr = [| 0, 0, 0, 0, 0, 0, 0, 0, 0, 0, 0, 0, 0, 0, 0, 0, 0, 0, 0, 0, 0, 0, 0, 0, 0, 0, 0, 0, 0, 0
      | 0, 0, 0, 0, 0, 0, 0, 0, 0, 0, 0, 0, 0, 0, 0, 0, 0, 0, 0, 0, 0, 0, 0, 0, 0, 0, 0, 0, 0, 0
      | 0, 0, 0, 0, 0, 0, 0, 0, 0, 0, 0, 0, 0, 0, 0, 0, 0, 0, 0, 0, 0, 0, 0, 0, 0, 0, 0, 0, 0, 0
      | 0, 0, 0, 0, 0, 0, 0, 0, 0, 0, 0, 0, 0, 0, 0, 0, 0, 0, 0, 0, 0, 0, 0, 0, 0, 0, 0, 0, 0, 0 |];
suc = [ { 4, 12, 19 },
       { 5, 6, 7 },
       { 4, 14 },
       { 10, 21 },
       { 9, 14, 19 },
       { 9, 11 },
       { 8, 29 },
       { 13, 16, 19 },
       { 10, 15, 25 },
       { 17 },
       { 12, 21, 23 },
       { 20 },
       { 15, 18, 25 },
       { 25 },
       { 21 },
       { 24, 28 },
       { 23, 27 },
       { 22 },
       { 27, 30 },
       { 22, 29 },
       { 26 },
       { 24, 27 },
       { 24, 26 },
       { 30 },
       { 26, 30 },
       { 28 },
       { 28 },
       {  },
       {  },
       {  } ];
